c A SAT instance generated from a 3-CNF formula that had 40 clauses and 10 variables
p cnf 10 40
10 4 5 0
5 4 -3 0
-6 9 -4 0
-2 -7 -4 0
-7 -4 -6 0
-3 8 -1 0
-1 -8 -3 0
-9 6 10 0
-9 5 -6 0
1 7 4 0
7 3 -6 0
3 -9 7 0
2 -7 -8 0
2 -7 9 0
-10 9 5 0
5 -9 -8 0
7 6 -5 0
-8 7 3 0
-6 4 9 0
5 -10 -8 0
-3 -10 -4 0
2 -7 10 0
-7 10 -8 0
10 5 -1 0
5 1 7 0
-10 7 2 0
9 5 -8 0
8 -6 1 0
1 4 7 0
7 5 -9 0
2 5 6 0
-3 2 8 0
4 -5 -9 0
-4 5 -9 0
4 -10 2 0
-2 -7 -5 0
9 2 7 0
-2 4 -5 0
-4 -10 5 0
-4 -9 7 0
%
0

51 38 63 64 89 81 8 53 64 80
